30
1 0 2
2 0 1
2 1 1
3 0 2
3 1 2
3 2 2
4 0 2
4 1 1
4 2 1
4 3 1
5 0 2
5 1 1
5 2 2
5 3 1
5 4 2
6 0 1
6 1 1
6 2 2
6 3 1
6 4 2
6 5 2
7 0 1
7 1 1
7 2 1
7 3 2
7 4 1
7 5 1
7 6 2
8 0 2
8 1 1
8 2 1
8 3 1
8 4 2
8 5 1
8 6 1
8 7 1
9 0 2
9 1 1
9 2 1
9 3 1
9 4 2
9 5 2
9 6 1
9 7 2
9 8 1
10 0 1
10 1 2
10 2 2
10 3 2
10 4 2
10 5 2
10 6 2
10 7 2
10 8 1
10 9 1
11 0 1
11 1 1
11 2 1
11 3 1
11 4 2
11 5 2
11 6 2
11 7 2
11 8 1
11 9 1
11 10 2
12 0 1
12 1 1
12 2 1
12 3 1
12 4 1
12 5 2
12 6 2
12 7 1
12 8 2
12 9 1
12 10 2
12 11 2
13 0 2
13 1 1
13 2 2
13 3 1
13 4 1
13 5 2
13 6 1
13 7 2
13 8 2
13 9 2
13 10 1
13 11 2
13 12 1
14 0 1
14 1 1
14 2 2
14 3 1
14 4 2
14 5 1
14 6 1
14 7 1
14 8 1
14 9 1
14 10 1
14 11 1
14 12 1
14 13 2
15 0 2
15 1 1
15 2 1
15 3 2
15 4 1
15 5 1
15 6 1
15 7 2
15 8 2
15 9 1
15 10 2
15 11 1
15 12 1
15 13 2
15 14 1
16 0 2
16 1 1
16 2 1
16 3 1
16 4 1
16 5 2
16 6 2
16 7 2
16 8 2
16 9 2
16 10 2
16 11 2
16 12 1
16 13 2
16 14 1
16 15 1
17 0 2
17 1 2
17 2 1
17 3 2
17 4 2
17 5 2
17 6 1
17 7 1
17 8 2
17 9 2
17 10 1
17 11 2
17 12 2
17 13 1
17 14 1
17 15 2
17 16 2
18 0 2
18 1 2
18 2 1
18 3 1
18 4 1
18 5 1
18 6 2
18 7 1
18 8 2
18 9 1
18 10 2
18 11 2
18 12 2
18 13 1
18 14 2
18 15 2
18 16 1
18 17 2
19 0 2
19 1 1
19 2 1
19 3 1
19 4 2
19 5 2
19 6 2
19 7 1
19 8 2
19 9 1
19 10 1
19 11 1
19 12 2
19 13 1
19 14 1
19 15 2
19 16 1
19 17 1
19 18 2
20 0 2
20 1 1
20 2 2
20 3 1
20 4 2
20 5 1
20 6 1
20 7 2
20 8 1
20 9 2
20 10 2
20 11 1
20 12 2
20 13 2
20 14 2
20 15 1
20 16 1
20 17 2
20 18 1
20 19 2
21 0 1
21 1 1
21 2 1
21 3 1
21 4 2
21 5 1
21 6 2
21 7 2
21 8 2
21 9 2
21 10 1
21 11 1
21 12 2
21 13 2
21 14 1
21 15 2
21 16 2
21 17 1
21 18 1
21 19 2
21 20 2
22 0 1
22 1 1
22 2 2
22 3 1
22 4 1
22 5 1
22 6 1
22 7 1
22 8 1
22 9 2
22 10 1
22 11 2
22 12 2
22 13 1
22 14 1
22 15 1
22 16 1
22 17 2
22 18 2
22 19 2
22 20 2
22 21 2
23 0 2
23 1 1
23 2 1
23 3 1
23 4 2
23 5 1
23 6 2
23 7 2
23 8 1
23 9 1
23 10 2
23 11 2
23 12 1
23 13 1
23 14 2
23 15 1
23 16 1
23 17 1
23 18 1
23 19 1
23 20 2
23 21 2
23 22 1
24 0 1
24 1 1
24 2 2
24 3 2
24 4 1
24 5 1
24 6 1
24 7 1
24 8 1
24 9 2
24 10 1
24 11 2
24 12 2
24 13 1
24 14 2
24 15 1
24 16 2
24 17 1
24 18 2
24 19 1
24 20 1
24 21 1
24 22 2
24 23 1
25 0 2
25 1 2
25 2 1
25 3 2
25 4 1
25 5 2
25 6 2
25 7 2
25 8 2
25 9 2
25 10 2
25 11 2
25 12 1
25 13 1
25 14 2
25 15 2
25 16 2
25 17 2
25 18 2
25 19 2
25 20 2
25 21 1
25 22 2
25 23 2
25 24 1
26 0 2
26 1 1
26 2 2
26 3 1
26 4 1
26 5 1
26 6 1
26 7 1
26 8 1
26 9 2
26 10 2
26 11 1
26 12 2
26 13 1
26 14 1
26 15 2
26 16 2
26 17 2
26 18 1
26 19 2
26 20 1
26 21 1
26 22 1
26 23 2
26 24 2
26 25 2
27 0 1
27 1 2
27 2 2
27 3 2
27 4 2
27 5 2
27 6 2
27 7 1
27 8 1
27 9 2
27 10 2
27 11 1
27 12 1
27 13 2
27 14 2
27 15 2
27 16 2
27 17 1
27 18 1
27 19 1
27 20 2
27 21 1
27 22 2
27 23 2
27 24 1
27 25 1
27 26 2
28 0 2
28 1 2
28 2 2
28 3 1
28 4 1
28 5 2
28 6 1
28 7 1
28 8 2
28 9 2
28 10 1
28 11 2
28 12 2
28 13 1
28 14 1
28 15 1
28 16 2
28 17 1
28 18 2
28 19 1
28 20 1
28 21 2
28 22 2
28 23 2
28 24 1
28 25 2
28 26 1
28 27 1
29 0 2
29 1 1
29 2 1
29 3 1
29 4 2
29 5 2
29 6 1
29 7 1
29 8 2
29 9 1
29 10 2
29 11 1
29 12 2
29 13 2
29 14 2
29 15 2
29 16 1
29 17 1
29 18 2
29 19 2
29 20 1
29 21 2
29 22 1
29 23 2
29 24 2
29 25 2
29 26 2
29 27 2
29 28 2
